NAME: tsp50_2
COMMENT: 50-tsp problem (Padberg/Rinaldi)
TYPE: TSP
DIMENSION: 50
EDGE_WEIGHT_TYPE : EUC_2D
NODE_COORD_SECTION
1 22 27
2 9 13
3 10 11
4 22 8
5 15 29
6 8 10
7 17 21
8 3 34
9 29 26
10 17 11
11 34 10
12 25 30
13 19 11
14 12 8
15 32 13
16 36 7
17 22 1
18 40 7
19 15 30
20 16 26
21 8 9
22 6 8
23 35 30
24 15 30
25 12 29
26 37 6
27 31 7
28 6 16
29 10 37
30 20 29
31 33 29
32 8 25
33 25 28
34 32 24
35 11 6
36 12 5
37 6 31
38 31 2
39 0 13
40 22 8
41 4 27
42 36 13
43 1 30
44 27 40
45 9 21
46 13 29
47 29 39
48 11 38
49 31 13
50 20 16
